MergedCell
   1.00000000000000     
     6.16002290278     0.00000000000     0.00000000000
    -3.08001145139     5.33473531307     0.00000000000
     0.00000000000     0.00000000000    25.00000000000
  O   Ti  C 
     8     8     4 
Direct
     0.16666666667     0.33333333333     0.58956270065  M 
     0.66666666667     0.33333333333     0.58956270065  M 
     0.16666666667     0.83333333333     0.58956270065  M 
     0.66666666667     0.83333333333     0.58956270065  M 
     0.33333333333     0.16666666667     0.41043729935  M 
     0.83333333333     0.16666666667     0.41043729935  M 
     0.33333333333     0.66666666667     0.41043729935  M 
     0.83333333333     0.66666666667     0.41043729935  M 
     0.33333333333     0.16666666667     0.55278541681  M 
     0.83333333333     0.16666666667     0.55278541681  M 
     0.33333333333     0.66666666667     0.55278541681  M 
     0.83333333333     0.66666666667     0.55278541681  M 
     0.16666666667     0.33333333333     0.44721458319  M 
     0.66666666667     0.33333333333     0.44721458319  M 
     0.16666666667     0.83333333333     0.44721458319  M 
     0.66666666667     0.83333333333     0.44721458319  M 
     0.00000000000     0.00000000000     0.50000000000  N 
     0.50000000000     0.00000000000     0.50000000000  N 
     0.00000000000     0.50000000000     0.50000000000  N 
     0.50000000000     0.50000000000     0.50000000000  N 
